13466
0 0 0 1 1 1 0 0 0 0 0 1 0 0 1 0 0 1 0 1 1 1 0 0 1 1 1 0 0 0 
20 11 20 14 20 5 19 24 14 17 24 20 20 20 3 14 14 17 5 11 14 4 5 3 5 20 19 24 5 24 5 25 20 25 20 20 24 24 4 14 17 14 24 14 24 14 4 20 11 14 5 14 14 5 20 20 17 11 11 14 17 5 20 11 11 11 24 17 5 24 20 20 11 17 24 20 26 20 14 24 20 17 20 17 17 17 17 4 20 5 17 24 17 11 17 5 14 3 21 20 20 17 17 25 19 25 17 11 14 14 14 14 17 11 11 21 24 24 24 24 5 20 25 20 20 4 5 24 11 21 17 11 24 5 20 14 17 5 20 17 17 20 14 14 14 25 25 5 17 5 
